(declare-const a Real)
(declare-const b Real)
(declare-const c Real)
(assert (= (+ a b c) 1))
(assert (> a 0))
(assert (> b 0))
(assert (> c 0))
(assert (not (<= (+ 2 a c (* a (pow 2 (/ 1 2))) (* b (pow 2 (/ 1 2))) (* c (pow 2 (/ 1 2))) (* (pow (+ a (* b c)) (/ -1 2)) (+ (* -1 b) (* -1 a c))) (* (pow (+ a (* b c)) (/ -1 2)) (+ (* -1 c) (* -1 a b))) (* (pow (+ b (* a c)) (/ -1 2)) (+ (* -1 a) (* -1 b c))) (* (pow (+ b (* a c)) (/ -1 2)) (+ (* -1 c) (* -1 a b))) (* (pow (+ c (* a b)) (/ -1 2)) (+ (* -1 a) (* -1 b c))) (* (pow (+ c (* a b)) (/ -1 2)) (+ (* -1 b) (* -1 a c)))) 0)))
(check-sat)
(get-model)
(exit)